NAME          DCAP_3_4_2_500_SS427
ROWS
 N  OBJ
 L  CON1
 L  CON2
 L  CON3
 L  CON4
 L  CON5
 L  CON6
 L  CON7
 L  CON8
 L  CON9
 L  CON10
 L  CON11
 L  CON12
 E  CON13
 E  CON14
 E  CON15
 E  CON16
 E  CON17
 E  CON18
 E  CON19
 E  CON20
COLUMNS
    x[1,1]    OBJ       6.180167      CON1      1.000000    
    x[1,1]    CON7      -1.000000     CON8      -1.000000   
    x[1,2]    OBJ       5.039546      CON2      1.000000    
    x[1,2]    CON8      -1.000000   
    x[2,1]    OBJ       6.732585      CON3      1.000000    
    x[2,1]    CON9      -1.000000     CON10     -1.000000   
    x[2,2]    OBJ       7.443064      CON4      1.000000    
    x[2,2]    CON10     -1.000000   
    x[3,1]    OBJ       6.563535      CON5      1.000000    
    x[3,1]    CON11     -1.000000     CON12     -1.000000   
    x[3,2]    OBJ       6.054841      CON6      1.000000    
    x[3,2]    CON12     -1.000000   
    MARKER    'MARKER'                'INTORG'
    u[1,1]    OBJ       48.076654     CON1      -1.000000   
    u[1,2]    OBJ       49.466655     CON2      -1.000000   
    u[2,1]    OBJ       49.996186     CON3      -1.000000   
    u[2,2]    OBJ       32.230043     CON4      -1.000000   
    u[3,1]    OBJ       20.066487     CON5      -1.000000   
    u[3,2]    OBJ       27.484319     CON6      -1.000000   
    y[1,1,1]  OBJ       9.934827      CON7      0.842226    
    y[1,1,1]  CON13     1.000000    
    y[1,1,2]  OBJ       5.698656      CON8      1.056540    
    y[1,1,2]  CON14     1.000000    
    y[1,2,1]  OBJ       6.997584      CON7      1.023286    
    y[1,2,1]  CON15     1.000000    
    y[1,2,2]  OBJ       8.798940      CON8      0.645361    
    y[1,2,2]  CON16     1.000000    
    y[1,3,1]  OBJ       8.460169      CON7      1.448344    
    y[1,3,1]  CON17     1.000000    
    y[1,3,2]  OBJ       7.063217      CON8      1.260041    
    y[1,3,2]  CON18     1.000000    
    y[1,4,1]  OBJ       8.024346      CON7      1.496902    
    y[1,4,1]  CON19     1.000000    
    y[1,4,2]  OBJ       6.170814      CON8      0.607283    
    y[1,4,2]  CON20     1.000000    
    y[2,1,1]  OBJ       5.873836      CON9      0.842226    
    y[2,1,1]  CON13     1.000000    
    y[2,1,2]  OBJ       8.184161      CON10     1.056540    
    y[2,1,2]  CON14     1.000000    
    y[2,2,1]  OBJ       5.930699      CON9      1.023286    
    y[2,2,1]  CON15     1.000000    
    y[2,2,2]  OBJ       5.187648      CON10     0.645361    
    y[2,2,2]  CON16     1.000000    
    y[2,3,1]  OBJ       5.748295      CON9      1.448344    
    y[2,3,1]  CON17     1.000000    
    y[2,3,2]  OBJ       8.223464      CON10     1.260041    
    y[2,3,2]  CON18     1.000000    
    y[2,4,1]  OBJ       6.467342      CON9      1.496902    
    y[2,4,1]  CON19     1.000000    
    y[2,4,2]  OBJ       7.872151      CON10     0.607283    
    y[2,4,2]  CON20     1.000000    
    y[3,1,1]  OBJ       8.750917      CON11     0.842226    
    y[3,1,1]  CON13     1.000000    
    y[3,1,2]  OBJ       6.194716      CON12     1.056540    
    y[3,1,2]  CON14     1.000000    
    y[3,2,1]  OBJ       8.812619      CON11     1.023286    
    y[3,2,1]  CON15     1.000000    
    y[3,2,2]  OBJ       9.630987      CON12     0.645361    
    y[3,2,2]  CON16     1.000000    
    y[3,3,1]  OBJ       6.628578      CON11     1.448344    
    y[3,3,1]  CON17     1.000000    
    y[3,3,2]  OBJ       6.360700      CON12     1.260041    
    y[3,3,2]  CON18     1.000000    
    y[3,4,1]  OBJ       8.040981      CON11     1.496902    
    y[3,4,1]  CON19     1.000000    
    y[3,4,2]  OBJ       9.303558      CON12     0.607283    
    y[3,4,2]  CON20     1.000000    
    z[1,1]    OBJ       839.790979    CON13     1.000000    
    z[1,2]    OBJ       872.403852    CON14     1.000000    
    z[2,1]    OBJ       970.046082    CON15     1.000000    
    z[2,2]    OBJ       896.319272    CON16     1.000000    
    z[3,1]    OBJ       736.708975    CON17     1.000000    
    z[3,2]    OBJ       737.326702    CON18     1.000000    
    z[4,1]    OBJ       521.378866    CON19     1.000000    
    z[4,2]    OBJ       850.996089    CON20     1.000000    
    MARKER    'MARKER'                 'INTEND'
RHS
    RHS       CON1      -0.000000     CON2      -0.000000   
    RHS       CON3      -0.000000     CON4      -0.000000   
    RHS       CON5      -0.000000     CON6      -0.000000   
    RHS       CON7      -0.000000     CON8      -0.000000   
    RHS       CON9      -0.000000     CON10     -0.000000   
    RHS       CON11     -0.000000     CON12     -0.000000   
    RHS       CON13     1.000000      CON14     1.000000    
    RHS       CON15     1.000000      CON16     1.000000    
    RHS       CON17     1.000000      CON18     1.000000    
    RHS       CON19     1.000000      CON20     1.000000    
BOUNDS
 BV BOUND     u[1,1]  
 BV BOUND     u[1,2]  
 BV BOUND     u[2,1]  
 BV BOUND     u[2,2]  
 BV BOUND     u[3,1]  
 BV BOUND     u[3,2]  
 BV BOUND     y[1,1,1]
 BV BOUND     y[1,1,2]
 BV BOUND     y[1,2,1]
 BV BOUND     y[1,2,2]
 BV BOUND     y[1,3,1]
 BV BOUND     y[1,3,2]
 BV BOUND     y[1,4,1]
 BV BOUND     y[1,4,2]
 BV BOUND     y[2,1,1]
 BV BOUND     y[2,1,2]
 BV BOUND     y[2,2,1]
 BV BOUND     y[2,2,2]
 BV BOUND     y[2,3,1]
 BV BOUND     y[2,3,2]
 BV BOUND     y[2,4,1]
 BV BOUND     y[2,4,2]
 BV BOUND     y[3,1,1]
 BV BOUND     y[3,1,2]
 BV BOUND     y[3,2,1]
 BV BOUND     y[3,2,2]
 BV BOUND     y[3,3,1]
 BV BOUND     y[3,3,2]
 BV BOUND     y[3,4,1]
 BV BOUND     y[3,4,2]
 BV BOUND     z[1,1]  
 BV BOUND     z[1,2]  
 BV BOUND     z[2,1]  
 BV BOUND     z[2,2]  
 BV BOUND     z[3,1]  
 BV BOUND     z[3,2]  
 BV BOUND     z[4,1]  
 BV BOUND     z[4,2]  
ENDATA
